p cnf 10 15
-10 2 -1 3 -9 0
10 5 3 -6 9 0
-2 -7 -9 -8 5 0
4 -2 6 1 -10 0
-7 9 1 8 -2 0
-4 -5 -1 9 6 0
9 -5 -6 -2 4 0
10 7 1 5 -4 0
-7 -2 8 -1 10 0
-7 1 8 10 -5 0
-7 -1 -5 4 -9 0
5 -9 3 -8 7 0
7 2 3 -6 -10 0
-1 -8 -2 9 3 0
4 -7 -10 5 -1 0
